10 5 1.15
5 1 1 20 1 4 87 1 2 31 1 5 76 2 3 17 5 17 
5 1 5 25 1 3 32 1 1 24 1 2 18 1 4 81 
5 1 2 72 1 3 23 2 5 28 4 28 1 1 58 1 4 99 
5 2 3 86 5 86 1 2 76 1 5 97 1 1 45 1 4 90 
5 1 5 27 2 1 42 3 42 1 4 48 1 3 17 1 2 46 
5 1 2 67 1 1 98 2 5 48 4 48 1 4 27 1 3 62 
5 2 5 28 3 28 1 2 12 1 4 19 1 1 80 1 3 50 
5 1 2 63 1 1 94 1 3 98 1 4 50 1 5 80 
5 1 5 14 2 1 75 4 75 1 3 50 2 2 41 5 41 1 4 55 
5 1 5 72 1 3 18 2 2 37 4 37 1 4 79 2 1 61 3 61 
3 8 23 147 42 194 316 15 382 468 
2 102 35 177 19 286 350 
4 30 27 90 29 157 194 36 255 330 40 387 432 
4 25 44 139 116 207 342 4 428 487 45 605 676 
3 61 51 121 46 205 311 112 367 493 
